benchmarks_CP/INST_36x36/30/inst36x36_30_44.dzn
S=6;
start=[|
1,	-1,	-1,	-1,	7,	-1,	35,	-1,	-1,	18,	-1,	-1,	15,	-1,	-1,	-1,	-1,	23,	25,	26,	-1,	29,	-1,	-1,	-1,	-1,	2,	-1,	-1,	28,	6,	-1,	19,	-1,	14,	30|
8,	14,	-1,	-1,	4,	13,	29,	-1,	7,	-1,	-1,	-1,	22,	26,	-1,	-1,	-1,	32,	-1,	-1,	18,	-1,	-1,	-1,	17,	-1,	-1,	16,	12,	-1,	-1,	-1,	-1,	-1,	-1,	-1|
-1,	-1,	-1,	-1,	-1,	21,	-1,	-1,	16,	-1,	-1,	-1,	-1,	-1,	-1,	9,	-1,	-1,	-1,	-1,	-1,	-1,	30,	7,	-1,	-1,	-1,	-1,	27,	-1,	-1,	-1,	1,	3,	-1,	29|
23,	-1,	-1,	-1,	3,	-1,	-1,	-1,	-1,	-1,	-1,	-1,	-1,	-1,	-1,	-1,	-1,	-1,	21,	-1,	-1,	-1,	-1,	-1,	-1,	-1,	-1,	-1,	29,	18,	9,	4,	-1,	-1,	25,	-1|
-1,	-1,	30,	29,	-1,	15,	4,	-1,	-1,	-1,	-1,	21,	-1,	-1,	-1,	-1,	-1,	-1,	-1,	8,	-1,	-1,	-1,	-1,	-1,	-1,	-1,	-1,	10,	-1,	11,	-1,	-1,	-1,	36,	-1|
-1,	-1,	-1,	-1,	-1,	-1,	33,	-1,	28,	26,	-1,	30,	-1,	6,	2,	-1,	-1,	-1,	22,	4,	-1,	-1,	-1,	32,	-1,	-1,	-1,	-1,	1,	31,	-1,	-1,	-1,	-1,	-1,	-1|
4,	-1,	23,	-1,	-1,	-1,	-1,	-1,	-1,	36,	-1,	-1,	-1,	-1,	22,	-1,	27,	-1,	30,	12,	-1,	-1,	-1,	20,	-1,	-1,	-1,	-1,	-1,	-1,	-1,	-1,	16,	-1,	-1,	-1|
27,	8,	-1,	-1,	-1,	-1,	-1,	-1,	-1,	30,	-1,	-1,	4,	28,	-1,	1,	-1,	33,	3,	25,	-1,	-1,	-1,	-1,	-1,	-1,	36,	-1,	32,	-1,	-1,	-1,	2,	-1,	17,	-1|
-1,	1,	19,	-1,	-1,	-1,	-1,	13,	-1,	2,	-1,	4,	-1,	-1,	-1,	-1,	17,	-1,	36,	-1,	-1,	-1,	-1,	-1,	-1,	-1,	-1,	23,	28,	-1,	33,	25,	-1,	-1,	-1,	-1|
3,	35,	-1,	30,	-1,	-1,	7,	19,	-1,	-1,	-1,	23,	-1,	-1,	31,	-1,	26,	-1,	-1,	-1,	32,	-1,	5,	2,	-1,	22,	-1,	-1,	-1,	-1,	-1,	-1,	-1,	-1,	28,	-1|
-1,	33,	-1,	-1,	31,	-1,	-1,	-1,	-1,	-1,	-1,	3,	-1,	-1,	32,	-1,	-1,	-1,	-1,	14,	-1,	-1,	-1,	-1,	-1,	2,	-1,	-1,	26,	10,	-1,	-1,	-1,	-1,	6,	-1|
18,	-1,	13,	-1,	10,	20,	17,	27,	-1,	31,	32,	14,	-1,	21,	-1,	-1,	-1,	9,	15,	-1,	29,	28,	-1,	-1,	24,	-1,	1,	-1,	-1,	-1,	-1,	30,	-1,	36,	7,	-1|
-1,	-1,	-1,	-1,	-1,	-1,	16,	1,	-1,	-1,	35,	-1,	-1,	27,	-1,	26,	-1,	-1,	14,	-1,	30,	-1,	28,	-1,	-1,	34,	11,	-1,	-1,	-1,	-1,	-1,	17,	-1,	-1,	36|
2,	-1,	14,	-1,	30,	-1,	-1,	34,	-1,	-1,	33,	-1,	-1,	-1,	-1,	-1,	9,	17,	26,	-1,	-1,	-1,	-1,	-1,	-1,	-1,	-1,	-1,	-1,	-1,	-1,	-1,	-1,	-1,	-1,	-1|
-1,	-1,	-1,	-1,	-1,	-1,	32,	17,	4,	-1,	-1,	24,	-1,	30,	-1,	-1,	-1,	-1,	-1,	-1,	-1,	-1,	-1,	-1,	-1,	-1,	-1,	-1,	-1,	13,	-1,	3,	-1,	-1,	19,	-1|
7,	-1,	24,	-1,	-1,	17,	30,	-1,	-1,	-1,	-1,	-1,	-1,	-1,	20,	-1,	3,	-1,	-1,	13,	-1,	-1,	16,	-1,	-1,	-1,	-1,	-1,	33,	-1,	-1,	-1,	18,	35,	-1,	-1|
9,	3,	-1,	-1,	-1,	-1,	-1,	-1,	13,	-1,	22,	-1,	-1,	-1,	-1,	14,	-1,	19,	-1,	10,	-1,	-1,	-1,	21,	30,	-1,	-1,	-1,	-1,	7,	-1,	-1,	-1,	5,	12,	-1|
-1,	-1,	-1,	-1,	-1,	-1,	5,	3,	-1,	19,	-1,	27,	-1,	7,	-1,	32,	34,	-1,	18,	-1,	20,	-1,	31,	12,	-1,	28,	-1,	-1,	17,	-1,	-1,	24,	-1,	10,	-1,	-1|
-1,	-1,	1,	-1,	2,	-1,	24,	7,	-1,	-1,	-1,	13,	-1,	4,	21,	3,	-1,	-1,	-1,	-1,	-1,	-1,	-1,	15,	-1,	-1,	27,	-1,	36,	8,	29,	-1,	-1,	-1,	-1,	-1|
-1,	-1,	-1,	-1,	-1,	36,	-1,	14,	-1,	-1,	-1,	-1,	33,	1,	27,	8,	23,	2,	10,	-1,	-1,	-1,	-1,	-1,	32,	-1,	-1,	18,	4,	5,	-1,	-1,	-1,	-1,	-1,	22|
-1,	-1,	8,	4,	-1,	-1,	-1,	-1,	-1,	-1,	-1,	36,	-1,	-1,	-1,	13,	-1,	26,	33,	-1,	14,	-1,	-1,	-1,	23,	-1,	-1,	-1,	-1,	15,	25,	-1,	12,	19,	-1,	34|
-1,	32,	-1,	26,	-1,	19,	-1,	2,	22,	33,	-1,	-1,	7,	-1,	14,	-1,	-1,	24,	-1,	5,	3,	4,	-1,	23,	-1,	-1,	-1,	-1,	11,	-1,	-1,	27,	-1,	-1,	-1,	-1|
-1,	5,	-1,	-1,	-1,	-1,	-1,	4,	-1,	-1,	8,	-1,	34,	-1,	-1,	-1,	-1,	-1,	-1,	-1,	-1,	-1,	-1,	-1,	-1,	-1,	-1,	-1,	7,	-1,	24,	-1,	-1,	14,	-1,	-1|
-1,	20,	-1,	14,	25,	-1,	-1,	-1,	-1,	-1,	-1,	-1,	16,	-1,	-1,	-1,	22,	-1,	-1,	24,	-1,	-1,	32,	-1,	-1,	-1,	-1,	-1,	-1,	-1,	-1,	7,	-1,	2,	33,	-1|
11,	-1,	-1,	-1,	-1,	-1,	-1,	-1,	-1,	-1,	-1,	28,	19,	-1,	-1,	-1,	-1,	-1,	-1,	-1,	2,	-1,	-1,	-1,	-1,	-1,	-1,	-1,	24,	17,	7,	-1,	-1,	-1,	-1,	-1|
17,	-1,	-1,	-1,	-1,	-1,	-1,	-1,	-1,	-1,	-1,	-1,	-1,	-1,	7,	28,	35,	-1,	34,	-1,	-1,	27,	-1,	-1,	-1,	-1,	-1,	3,	-1,	12,	-1,	-1,	22,	-1,	-1,	-1|
-1,	-1,	-1,	-1,	-1,	-1,	21,	-1,	-1,	-1,	-1,	-1,	-1,	-1,	-1,	-1,	-1,	-1,	1,	-1,	22,	14,	-1,	5,	-1,	-1,	-1,	34,	25,	-1,	-1,	-1,	20,	-1,	-1,	31|
24,	4,	-1,	-1,	-1,	-1,	-1,	26,	-1,	17,	-1,	-1,	-1,	-1,	-1,	-1,	-1,	-1,	-1,	23,	-1,	-1,	-1,	-1,	-1,	-1,	-1,	-1,	-1,	-1,	-1,	-1,	-1,	-1,	30,	-1|
-1,	-1,	-1,	10,	-1,	-1,	-1,	-1,	-1,	27,	-1,	-1,	-1,	-1,	-1,	-1,	20,	5,	-1,	9,	-1,	-1,	-1,	-1,	-1,	1,	-1,	11,	-1,	4,	-1,	-1,	-1,	26,	-1,	19|
-1,	-1,	-1,	-1,	-1,	-1,	6,	-1,	-1,	-1,	-1,	-1,	-1,	13,	-1,	2,	-1,	-1,	-1,	16,	-1,	-1,	-1,	-1,	-1,	-1,	-1,	22,	9,	-1,	34,	-1,	-1,	1,	23,	21|
-1,	-1,	-1,	-1,	-1,	-1,	-1,	12,	-1,	-1,	-1,	15,	-1,	-1,	19,	-1,	14,	-1,	29,	32,	-1,	-1,	11,	-1,	-1,	-1,	-1,	-1,	-1,	-1,	-1,	-1,	-1,	30,	-1,	28|
-1,	-1,	-1,	-1,	13,	12,	-1,	-1,	-1,	35,	-1,	-1,	-1,	-1,	-1,	34,	-1,	6,	-1,	28,	-1,	-1,	-1,	-1,	-1,	-1,	-1,	30,	-1,	-1,	-1,	-1,	-1,	8,	-1,	-1|
-1,	-1,	-1,	-1,	-1,	-1,	13,	-1,	-1,	-1,	-1,	-1,	-1,	22,	8,	-1,	-1,	-1,	-1,	36,	-1,	20,	15,	-1,	28,	-1,	17,	-1,	-1,	3,	19,	-1,	-1,	-1,	-1,	-1|
28,	-1,	4,	-1,	-1,	-1,	19,	30,	-1,	-1,	-1,	8,	-1,	-1,	26,	7,	-1,	-1,	-1,	-1,	-1,	-1,	-1,	6,	-1,	9,	-1,	-1,	-1,	34,	-1,	13,	23,	-1,	16,	-1|
-1,	21,	-1,	-1,	-1,	-1,	18,	-1,	-1,	-1,	7,	-1,	-1,	25,	-1,	-1,	-1,	4,	23,	-1,	-1,	-1,	-1,	-1,	29,	36,	15,	-1,	5,	-1,	-1,	-1,	24,	-1,	31,	17|
5,	-1,	-1,	34,	-1,	-1,	-1,	-1,	-1,	-1,	-1,	-1,	-1,	-1,	-1,	-1,	-1,	-1,	7,	-1,	13,	-1,	-1,	1,	-1,	-1,	-1,	-1,	-1,	-1,	-1,	36,	-1,	33,	-1,	-1|];
